TCS_Benchmarks/redos_fix/snort3_output_distinct_3223_3222_41_0.smt2
(set-logic QF_S)
(declare-const x String)
(assert (str.in.re x (re.inter  (re.++ (re.* (re.comp  (str.to.re "\u{3e}")) )  (re.union (str.to_re "") (re.union  (re.++  (re.union (re.union (re.range "\u{09}" "\u{0d}") (re.range "\u{20}" "\u{20}") (re.range "\u{85}" "\u{85}") (re.range "\u{a0}" "\u{a0}"))  (str.to.re "\u{2d}"))  (str.to_re ""))  (re.++  (re.union (re.union (re.range "\u{09}" "\u{0d}") (re.range "\u{20}" "\u{20}") (re.range "\u{85}" "\u{85}") (re.range "\u{a0}" "\u{a0}"))  (str.to.re "\u{2d}"))   (re.++  (re.union (re.union (re.range "\u{09}" "\u{0d}") (re.range "\u{20}" "\u{20}") (re.range "\u{85}" "\u{85}") (re.range "\u{a0}" "\u{a0}"))  (str.to.re "\u{2d}"))  (str.to_re ""))))))  (re.++ (re.* (re.comp  (str.to.re "\u{3e}")) ) (re.++  (re.++ (re.union (re.range "\u{09}" "\u{0d}") (re.range "\u{20}" "\u{20}") (re.range "\u{85}" "\u{85}") (re.range "\u{a0}" "\u{a0}")) (re.++  (re.union  (str.to.re "\u{64}")  (str.to.re "\u{44}")) (re.++ (re.* (re.union (re.range "\u{09}" "\u{0d}") (re.range "\u{20}" "\u{20}") (re.range "\u{85}" "\u{85}") (re.range "\u{a0}" "\u{a0}")) ) (re.++  (str.to.re "\u{3d}") (re.++ (re.* (re.union (re.range "\u{09}" "\u{0d}") (re.range "\u{20}" "\u{20}") (re.range "\u{85}" "\u{85}") (re.range "\u{a0}" "\u{a0}")) ) (re.++  (re.union  (str.to.re "\u{22}")  (str.to.re "\u{27}")) (re.++ (re.* (re.comp  (re.union  (str.to.re "\u{22}")  (str.to.re "\u{27}"))) )  (re.union  (str.to.re "\u{43}") (re.union (re.range "\u{4c}" "\u{4d}") (re.union  (str.to.re "\u{63}") (re.union (re.range "\u{6c}" "\u{6d}") (re.union (re.range "\u{09}" "\u{0d}") (re.range "\u{20}" "\u{20}") (re.range "\u{85}" "\u{85}") (re.range "\u{a0}" "\u{a0}")))))))))))))  (re.union (str.to_re "") (re.union  (re.++  (re.union (re.union (re.range "\u{09}" "\u{0d}") (re.range "\u{20}" "\u{20}") (re.range "\u{85}" "\u{85}") (re.range "\u{a0}" "\u{a0}"))  (str.to.re "\u{2d}"))  (str.to_re ""))  (re.++  (re.union (re.union (re.range "\u{09}" "\u{0d}") (re.range "\u{20}" "\u{20}") (re.range "\u{85}" "\u{85}") (re.range "\u{a0}" "\u{a0}"))  (str.to.re "\u{2d}"))   (re.++  (re.union (re.union (re.range "\u{09}" "\u{0d}") (re.range "\u{20}" "\u{20}") (re.range "\u{85}" "\u{85}") (re.range "\u{a0}" "\u{a0}"))  (str.to.re "\u{2d}"))  (str.to_re ""))))))) )))
(check-sat)
(get-model)