TCS_Benchmarks/redos_fix/snort3_output_distinct_3223_3222_41_0.txt
([^>]*)([\s\-]{0,2})
([^>]*)(\s[dD]\s*=\s*["'][^"']*[CL-Mcl-m\s])([\s\-]{0,2})